Version identifier: 22.1.0.0 | 2022-03-09 | 1a383f8ce
CPXPARAM_Threads                                 1
CPXPARAM_MIP_Strategy_VariableSelect             3
CPXPARAM_TimeLimit                               599.99323501900005
Tried aggregator 1 time.
MIP Presolve eliminated 11 rows and 0 columns.
MIP Presolve modified 1 coefficients.
Reduced MIP has 1814 rows, 7500 columns, and 79820 nonzeros.
Reduced MIP has 7500 binaries, 0 generals, 0 SOSs, and 0 indicators.
Presolve time = 0.05 sec. (33.71 ticks)
Probing time = 0.01 sec. (4.17 ticks)
Tried aggregator 1 time.
Detecting symmetries...
Reduced MIP has 1814 rows, 7500 columns, and 79820 nonzeros.
Reduced MIP has 7500 binaries, 0 generals, 0 SOSs, and 0 indicators.
Presolve time = 0.05 sec. (42.89 ticks)
Probing time = 0.01 sec. (4.17 ticks)
Clique table members: 898.
MIP emphasis: balance optimality and feasibility.
MIP search method: dynamic search.
Parallel mode: none, using 1 thread.
Root relaxation solution time = 1.45 sec. (1479.27 ticks)

        Nodes                                         Cuts/
   Node  Left     Objective  IInf  Best Integer    Best Bound    ItCnt     Gap

      0     0        0.0000  1357                      0.0000     4693         
      0     0        0.0000   516                  Cliques: 8     7855         
      0     0        0.0000   506                 Cliques: 10    11662         
      0     0        0.0000   431                     Cuts: 4    15812         
      0     0        0.0000   399                     Cuts: 2    16347         
      0     0        0.0000   752                    Cuts: 81    21908         
      0     0        0.0000   607                    Cuts: 12    25734         
      0     0        0.0000   997                    Cuts: 23    29519         
      0     2        0.0000   232                      0.0000    29519         
Elapsed time = 93.81 sec. (106582.76 ticks, tree = 0.01 MB, solutions = 0)
      1     3        0.0000   373                      0.0000    38539         
      2     4        0.0000   310                      0.0000    43053         
      3     5        0.0000   445                      0.0000    48260         
      4     6        0.0000   338                      0.0000    49693         
      5     7        0.0000   332                      0.0000    51062         
      6     8        0.0000   799                      0.0000    58523         
      7     9        0.0000  1416                      0.0000    60770         
      8    10        0.0000   698                      0.0000    61520         
      9    11        0.0000   686                      0.0000    61946         
     10    12        0.0000   685                      0.0000    62748         
Elapsed time = 109.88 sec. (123401.29 ticks, tree = 0.12 MB, solutions = 0)
     12    14        0.0000   656                      0.0000    63885         
     14    16        0.0000   662                      0.0000    65129         
     17    19        0.0000   697                      0.0000    80722         
     19    21        0.0000   503                      0.0000    89594         
     20    22        0.0000   757                      0.0000    97010         
     22    24        0.0000   731                      0.0000    98869         
     24    26        0.0000   760                      0.0000   100797         
     26    28        0.0000   650                      0.0000   103345         
     27    29        0.0000   794                      0.0000   104752         
     29    31        0.0000   683                      0.0000   106635         
Elapsed time = 132.76 sec. (148040.00 ticks, tree = 0.33 MB, solutions = 0)
     31    31    infeasible                            0.0000   125169         
     33    33        0.0000   636                      0.0000   131742         
     34    34        0.0000   760                      0.0000   139111         
     36    36        0.0000   786                      0.0000   141608         
     38    38        0.0000   551                      0.0000   146682         
     40    40        0.0000   527                      0.0000   153022         
     43    43        0.0000   548                      0.0000   158530         
     45    45        0.0000   526                      0.0000   162984         
     46    46        0.0000   611                      0.0000   165440         
     47    47        0.0000   576                      0.0000   175090         
Elapsed time = 157.32 sec. (174992.78 ticks, tree = 0.55 MB, solutions = 0)
     49    49        0.0000   591                      0.0000   187124         
     50    50        0.0000   558                      0.0000   187560         
     52    52        0.0000   460                      0.0000   192102         
     54    54        0.0000   444                      0.0000   196318         
     57    57        0.0000   391                      0.0000   202661         
     60    60        0.0000   391                      0.0000   205782         
     63    63        0.0000   598                      0.0000   213041         
     66    66        0.0000   357                      0.0000   216892         
     67    67        0.0000   401                      0.0000   224786         
     68    68        0.0000   343                      0.0000   233389         
Elapsed time = 182.16 sec. (201081.17 ticks, tree = 0.65 MB, solutions = 0)
     69    69        0.0000   594                      0.0000   235674         
     70    70        0.0000   342                      0.0000   235849         
     71    71        0.0000   342                      0.0000   237775         
     73    73        0.0000   290                      0.0000   239857         
     74    74        0.0000   449                      0.0000   244152         
     76    76        0.0000   504                      0.0000   250369         
     78    78        0.0000   489                      0.0000   254929         
     80    80        0.0000   489                      0.0000   260746         
     82    82        0.0000   466                      0.0000   267740         
     84    84        0.0000   514                      0.0000   274654         
Elapsed time = 209.37 sec. (231825.09 ticks, tree = 0.91 MB, solutions = 0)
     86    86        0.0000   547                      0.0000   280901         
     88    88        0.0000   509                      0.0000   287473         
     89    89        0.0000   359                      0.0000   295261         
     90    90        0.0000   464                      0.0000   298168         
     93    93        0.0000   357                      0.0000   300353         
     94    94        0.0000   301                      0.0000   306426         
     96    96        0.0000   278                      0.0000   309960         
     97    97        0.0000   343                      0.0000   313880         
     98    98        0.0000   340                      0.0000   320933         
    100   100        0.0000   330                      0.0000   323789         
Elapsed time = 229.27 sec. (253337.17 ticks, tree = 1.20 MB, solutions = 0)
    101   101        0.0000   511                      0.0000   331476         
    102   102        0.0000   569                      0.0000   338180         
    105   105        0.0000   475                      0.0000   341691         
    106   106        0.0000   438                      0.0000   353378         
    108   108        0.0000   391                      0.0000   364466         
    111   109    infeasible                            0.0000   375847         
    113   111        0.0000   438                      0.0000   381429         
    115   113        0.0000   474                      0.0000   402874         
    117   113    infeasible                            0.0000   416375         
    119   115        0.0000   443                      0.0000   443192         
Elapsed time = 248.63 sec. (272230.96 ticks, tree = 1.34 MB, solutions = 0)
    121   117        0.0000   224                      0.0000   450374         
    122   116    infeasible                            0.0000   458741         
    124   116    infeasible                            0.0000   466578         
    126   116    infeasible                            0.0000   474483         
    127   117        0.0000   282                      0.0000   476383         
    128   116    infeasible                            0.0000   484668         
    130   116    infeasible                            0.0000   504122         
    133   119        0.0000   382                      0.0000   523554         
    134   120        0.0000   499                      0.0000   550797         
    136   122        0.0000   336                      0.0000   553498         
Elapsed time = 264.89 sec. (288544.15 ticks, tree = 1.37 MB, solutions = 0)
    137   123        0.0000   319                      0.0000   560529         
    138   124        0.0000   417                      0.0000   573059         
    140   126        0.0000   273                      0.0000   579473         
    142   126    infeasible                            0.0000   588174         
    144   126    infeasible                            0.0000   601053         
    146   128        0.0000   357                      0.0000   604433         
    147   129        0.0000   376                      0.0000   614237         
    148   130        0.0000   230                      0.0000   622689         
    149   131        0.0000   222                      0.0000   630240         
    151   131        0.0000   227                      0.0000   644300         
Elapsed time = 282.67 sec. (307044.59 ticks, tree = 1.40 MB, solutions = 0)
    153   131        0.0000   249                      0.0000   652901         
    154   130    infeasible                            0.0000   660775         
    156   132        0.0000   287                      0.0000   669726         
    160   136        0.0000   256                      0.0000   676611         
    162   136    infeasible                            0.0000   688074         
    164   138        0.0000   265                      0.0000   696200         
    166   140        0.0000   279                      0.0000   702312         
    168   142        0.0000   256                      0.0000   708266         
    171   141        0.0000   257                      0.0000   721032         
    174   138    infeasible                            0.0000   730252         
Elapsed time = 298.94 sec. (323168.78 ticks, tree = 1.42 MB, solutions = 0)
    176   136    infeasible                            0.0000   740562         
    178   134    infeasible                            0.0000   746901         
    180   132    infeasible                            0.0000   747092         
    182   132        0.0000   433                      0.0000   758722         
    186   136        0.0000   493                      0.0000   777613         
    191   141        0.0000   395                      0.0000   796010         
    196   146        0.0000   268                      0.0000   811755         
    201   149        0.0000   363                      0.0000   843862         
    208   152        0.0000   359                      0.0000   856039         
    213   151    infeasible                            0.0000   863822         
Elapsed time = 342.77 sec. (369209.59 ticks, tree = 1.45 MB, solutions = 0)
    219   153        0.0000   335                      0.0000   873150         
    224   152    infeasible                            0.0000   906947         
    230   152    infeasible                            0.0000   913806         
    238   156        0.0000   266                      0.0000   919363         
    245   159        0.0000   239                      0.0000   922401         
    258   160    infeasible                            0.0000   922688         
    260   160        0.0000   345                      0.0000   928649         
    265   161    infeasible                            0.0000   937913         
    270   164        0.0000   339                      0.0000   943375         
    275   165    infeasible                            0.0000   952929         
Elapsed time = 380.63 sec. (411381.83 ticks, tree = 1.50 MB, solutions = 0)
    279   167    infeasible                            0.0000   960302         
    282   170        0.0000   344                      0.0000   963313         
    287   175        0.0000   445                      0.0000   971268         
    291   177        0.0000   431                      0.0000   978735         
    293   179        0.0000   394                      0.0000   990429         
    297   183        0.0000   459                      0.0000  1045613         
    299   183    infeasible                            0.0000  1083081         
    302   186        0.0000   403                      0.0000  1110266         
    309   187    infeasible                            0.0000  1116968         
    317   187    infeasible                            0.0000  1123811         
Elapsed time = 426.45 sec. (459443.02 ticks, tree = 1.56 MB, solutions = 0)
    322   188        0.0000   326                      0.0000  1126917         
    330   188        0.0000   323                      0.0000  1131948         
    338   188        0.0000   315                      0.0000  1137760         
    345   189    infeasible                            0.0000  1144304         
    352   194        0.0000   360                      0.0000  1148634         
    359   195        0.0000   438                      0.0000  1153918         
    367   197    infeasible                            0.0000  1157264         
    372   194        0.0000   338                      0.0000  1168796         
    378   198        0.0000   379                      0.0000  1173688         
    384   204        0.0000   350                      0.0000  1178483         
Elapsed time = 467.53 sec. (505675.41 ticks, tree = 1.61 MB, solutions = 0)
    390   204    infeasible                            0.0000  1184423         
    396   204    infeasible                            0.0000  1192019         
    402   206        0.0000   407                      0.0000  1199321         
    408   208        0.0000   437                      0.0000  1206063         
    414   208    infeasible                            0.0000  1213431         
    420   208    infeasible                            0.0000  1220621         
    426   210    infeasible                            0.0000  1227209         
    432   214        0.0000   341                      0.0000  1231278         
    437   215    infeasible                            0.0000  1247341         
    443   215    infeasible                            0.0000  1256279         
Elapsed time = 507.32 sec. (551482.02 ticks, tree = 1.65 MB, solutions = 0)
    449   219        0.0000   377                      0.0000  1269413         
    453   219    infeasible                            0.0000  1279862         
    459   225        0.0000   405                      0.0000  1284108         
    465   227        0.0000   376                      0.0000  1289533         
    473   231        0.0000   349                      0.0000  1293356         
    481   231        0.0000   351                      0.0000  1298745         
    489   235    infeasible                            0.0000  1302880         
    497   235    infeasible                            0.0000  1308909         
    501   235    infeasible                            0.0000  1311612         
    509   235    infeasible                            0.0000  1316082         
Elapsed time = 545.21 sec. (594836.71 ticks, tree = 1.72 MB, solutions = 0)
    517   237        0.0000   350                      0.0000  1320846         
    525   237        0.0000   354                      0.0000  1325947         
    533   237        0.0000   357                      0.0000  1330472         
    541   237    infeasible                            0.0000  1335645         
    550   234        0.0000   320                      0.0000  1347158         
    555   235        0.0000   321                      0.0000  1353537         
    560   240        0.0000   322                      0.0000  1357974         
    561   239    infeasible                            0.0000  1373499         
    565   239    infeasible                            0.0000  1407326         
    569   239    infeasible                            0.0000  1441569         
Elapsed time = 587.46 sec. (640903.50 ticks, tree = 1.73 MB, solutions = 0)
    574   242        0.0000   256                      0.0000  1453504         
    577   241    infeasible                            0.0000  1473973         
    582   244        0.0000   371                      0.0000  1479517         

Clique cuts applied:  62
Zero-half cuts applied:  9

Root node processing (before b&c):
  Real time             =   93.76 sec. (106536.02 ticks)
Sequential b&c:
  Real time             =  506.24 sec. (548089.76 ticks)
                          ------------
Total (root+branch&cut) =  600.00 sec. (654625.79 ticks)
Primal:	5
Dual:	300
Status:	Feasible
Time:	600.042
Sequence:
	15
	15
	15
	6
	6
